124
1000
22
78
14
72
177
211
39
29
16
116
124
79
145
112
229
130
82
54
191
165
4
226
6
185
96
60
142
244
119
155
240
196
39
108
236
29
191
44
11
245
123
127
179
157
2
59
25
81
85
245
81
143
241
249
40
161
202
216
18
151
90
122
76
195
32
91
95
243
55
164
65
162
136
137
217
213
150
109
116
1
62
190
50
33
1
201
86
197
138
122
112
193
19
169
31
250
124
37
231
133
28
7
43
109
235
149
186
9
190
197
163
115
74
33
76
221
165
144
204
250
8
67
192
41
